763 996
90 960
850 909
40 243
106 347
649 181
725 35
167 205
709 568
816 12
989 446
5 436
507 534
997 224
669 482
683 742
502 885
651 540
63 639
891 406
346 195
920 640
982 374
451 728
864 424
173 558
314 873
901 828
215 21
384 967
378 455
722 919
152 524
883 768
689 992
377 395
706 175
718 547
655 71
960 612
274 394
935 740
835 832
655 359
547 935
159 332
833 767
565 776
253 852
284 300
